33D32945 STP File, STP Format Version 1.0

SECTION Comments
Name "shell_n11_d3_s29"
Problem "Euclidean Steiner Tree Problem"
Remark "Generated with STPGenerator. 3 dimensions."
END

SECTION Graph
Nodes 11
END

SECTION Coordinates
DDD 0 0.8231098193 -0.0833634632 0.5617301473
DDD 1 -0.8658424910 0.2418353004 -0.4379868358
DDD 2 -0.1632014950 0.0927114356 0.9822269909
DDD 3 0.6936439511 -0.6624017340 0.2829876534
DDD 4 0.1497827074 -0.9814026047 0.1200586025
DDD 5 0.7076472454 -0.4702026772 0.5273943670
DDD 6 0.4690339010 -0.8826231725 0.0313613641
DDD 7 0.6523304951 0.7544819216 0.0722630959
DDD 8 -0.2512832112 -0.6901802390 0.6786073868
DDD 9 -0.6079651964 0.1244946488 -0.7841424631
DDD 10 0.8332399492 -0.5480602602 -0.0730830914
END
